%%%mzn-stat: initTime=0.003982954
%%%mzn-stat: objective=428
%%%mzn-stat: nodes=4049
%%%mzn-stat: restarts=0
%%%mzn-stat: peakDepth=124
%%%mzn-stat: solveTime=0.366792134
%%%mzn-stat: variables=382
%%%mzn-stat: propagators=449
%%%mzn-stat: failures=3181
%%%mzn-stat: propagations=419615
%%%mzn-stat: nogoods=3181
%%%mzn-stat: AverageConflictSize=10.224457717698836
%%%mzn-stat: NumUnitNogoodsLearned=427
%%%mzn-stat: AverageLearnedNogoodLength=29.155611442942472
%%%mzn-stat: AverageBacktrackAmount=0
%%%mzn-stat: AverageLbd=6.5721471235460545
%%%mzn-stat-end
maxleg = 428;
succ = array1d(1..20,[20, 7, 17, 1, 9, 16, 10, 12, 2, 6, 3, 18, 8, 4, 13, 15, 5, 14, 11, 19]);
% time elapsed: 0.82 s
----------
==========
% time elapsed: 0.82 s
%%%mzn-stat: initTime=0.003982954
%%%mzn-stat: objective=428
%%%mzn-stat: nodes=4049
%%%mzn-stat: restarts=0
%%%mzn-stat: peakDepth=124
%%%mzn-stat: solveTime=0.366795385
%%%mzn-stat: variables=382
%%%mzn-stat: propagators=449
%%%mzn-stat: failures=3181
%%%mzn-stat: propagations=419615
%%%mzn-stat: nogoods=3181
%%%mzn-stat: AverageConflictSize=10.224457717698836
%%%mzn-stat: NumUnitNogoodsLearned=427
%%%mzn-stat: AverageLearnedNogoodLength=29.155611442942472
%%%mzn-stat: AverageBacktrackAmount=0
%%%mzn-stat: AverageLbd=6.5721471235460545
%%%mzn-stat-end
